* #variable= 297 #constraint= 587 
-1 x19 +1 x1 >= 0 ;
-1 x19 +1 x10 >= 0 ;
+1 x19 -1 x1 -1 x10 >= -1 ;
+1 x181 -1 x19 = 0 ;
+1 x181 -1 x262 = 0 ;
-1 x19 +1 x1 >= 0 ;
-1 x19 +1 x10 >= 0 ;
+1 x19 -1 x1 -1 x10 >= -1 ;
+1 x19 +2 x28 +4 x37 +8 x46 +16 x55 +32 x64 +64 x73 +128 x82 +256 x91 +2 x20 +4 x29 +8 x38 +16 x47 +32 x56 +64 x65 +128 x74 +256 x83 +512 x92 +4 x21 +8 x30 +16 x39 +32 x48 +64 x57 +128 x66 +256 x75 +512 x84 +1024 x93 +8 x22 +16 x31 +32 x40 +64 x49 +128 x58 +256 x67 +512 x76 +1024 x85 +2048 x94 +16 x23 +32 x32 +64 x41 +128 x50 +256 x59 +512 x68 +1024 x77 +2048 x86 +4096 x95 +32 x24 +64 x33 +128 x42 +256 x51 +512 x60 +1024 x69 +2048 x78 +4096 x87 +8192 x96 +64 x25 +128 x34 +256 x43 +512 x52 +1024 x61 +2048 x70 +4096 x79 +8192 x88 +16384 x97 +128 x26 +256 x35 +512 x44 +1024 x53 +2048 x62 +4096 x71 +8192 x80 +16384 x89 +32768 x98 +256 x27 +512 x36 +1024 x45 +2048 x54 +4096 x63 +8192 x72 +16384 x81 +32768 x90 +65536 x99 -1 x280 -2 x281 -4 x282 -8 x283 -16 x284 -32 x285 -64 x286 -128 x287 -256 x288 -512 x289 -1024 x290 -2048 x291 -4096 x292 -8192 x293 -16384 x294 -32768 x295 -65536 x296 -131072 x297 = 0; 
+1 x262 -1 x280 +2 x263 -2 x281 +4 x264 -4 x282 +8 x265 -8 x283 +16 x266 -16 x284 +32 x267 -32 x285 +64 x268 -64 x286 +128 x269 -128 x287 +256 x270 -256 x288 +512 x271 -512 x289 +1024 x272 -1024 x290 +2048 x273 -2048 x291 +4096 x274 -4096 x292 +8192 x275 -8192 x293 +16384 x276 -16384 x294 +32768 x277 -32768 x295 +65536 x278 -65536 x296 +131072 x279 -131072 x297 >= 1 ;
-1 x28 +1 x2 >= 0 ;
-1 x28 +1 x10 >= 0 ;
+1 x28 -1 x2 -1 x10 >= -1 ;
-1 x20 +1 x1 >= 0 ;
-1 x20 +1 x11 >= 0 ;
+1 x20 -1 x1 -1 x11 >= -1 ;
+1 x190 -1 x28 = 0 ;
+2 x101 +1 x182 -1 x20 -1 x190 = 0 ;
+1 x182 -1 x263 = 0 ;
-1 x28 +1 x2 >= 0 ;
-1 x28 +1 x10 >= 0 ;
+1 x28 -1 x2 -1 x10 >= -1 ;
-1 x20 +1 x1 >= 0 ;
-1 x20 +1 x11 >= 0 ;
+1 x20 -1 x1 -1 x11 >= -1 ;
-1 x37 +1 x3 >= 0 ;
-1 x37 +1 x10 >= 0 ;
+1 x37 -1 x3 -1 x10 >= -1 ;
-1 x29 +1 x2 >= 0 ;
-1 x29 +1 x11 >= 0 ;
+1 x29 -1 x2 -1 x11 >= -1 ;
-1 x21 +1 x1 >= 0 ;
-1 x21 +1 x12 >= 0 ;
+1 x21 -1 x1 -1 x12 >= -1 ;
+1 x199 -1 x37 = 0 ;
+2 x110 +1 x191 -1 x29 -1 x101 -1 x199 = 0 ;
+2 x102 +1 x183 -1 x21 -1 x191 = 0 ;
+1 x183 -1 x264 = 0 ;
-1 x37 +1 x3 >= 0 ;
-1 x37 +1 x10 >= 0 ;
+1 x37 -1 x3 -1 x10 >= -1 ;
-1 x29 +1 x2 >= 0 ;
-1 x29 +1 x11 >= 0 ;
+1 x29 -1 x2 -1 x11 >= -1 ;
-1 x21 +1 x1 >= 0 ;
-1 x21 +1 x12 >= 0 ;
+1 x21 -1 x1 -1 x12 >= -1 ;
-1 x46 +1 x4 >= 0 ;
-1 x46 +1 x10 >= 0 ;
+1 x46 -1 x4 -1 x10 >= -1 ;
-1 x38 +1 x3 >= 0 ;
-1 x38 +1 x11 >= 0 ;
+1 x38 -1 x3 -1 x11 >= -1 ;
-1 x30 +1 x2 >= 0 ;
-1 x30 +1 x12 >= 0 ;
+1 x30 -1 x2 -1 x12 >= -1 ;
-1 x22 +1 x1 >= 0 ;
-1 x22 +1 x13 >= 0 ;
+1 x22 -1 x1 -1 x13 >= -1 ;
+1 x208 -1 x46 = 0 ;
+2 x119 +1 x200 -1 x38 -1 x110 -1 x208 = 0 ;
+2 x111 +1 x192 -1 x30 -1 x102 -1 x200 = 0 ;
+2 x103 +1 x184 -1 x22 -1 x192 = 0 ;
+1 x184 -1 x265 = 0 ;
-1 x46 +1 x4 >= 0 ;
-1 x46 +1 x10 >= 0 ;
+1 x46 -1 x4 -1 x10 >= -1 ;
-1 x38 +1 x3 >= 0 ;
-1 x38 +1 x11 >= 0 ;
+1 x38 -1 x3 -1 x11 >= -1 ;
-1 x30 +1 x2 >= 0 ;
-1 x30 +1 x12 >= 0 ;
+1 x30 -1 x2 -1 x12 >= -1 ;
-1 x22 +1 x1 >= 0 ;
-1 x22 +1 x13 >= 0 ;
+1 x22 -1 x1 -1 x13 >= -1 ;
-1 x55 +1 x5 >= 0 ;
-1 x55 +1 x10 >= 0 ;
+1 x55 -1 x5 -1 x10 >= -1 ;
-1 x47 +1 x4 >= 0 ;
-1 x47 +1 x11 >= 0 ;
+1 x47 -1 x4 -1 x11 >= -1 ;
-1 x39 +1 x3 >= 0 ;
-1 x39 +1 x12 >= 0 ;
+1 x39 -1 x3 -1 x12 >= -1 ;
-1 x31 +1 x2 >= 0 ;
-1 x31 +1 x13 >= 0 ;
+1 x31 -1 x2 -1 x13 >= -1 ;
-1 x23 +1 x1 >= 0 ;
-1 x23 +1 x14 >= 0 ;
+1 x23 -1 x1 -1 x14 >= -1 ;
+1 x217 -1 x55 = 0 ;
+2 x128 +1 x209 -1 x47 -1 x119 -1 x217 = 0 ;
+2 x120 +1 x201 -1 x39 -1 x111 -1 x209 = 0 ;
+2 x112 +1 x193 -1 x31 -1 x103 -1 x201 = 0 ;
+2 x104 +1 x185 -1 x23 -1 x193 = 0 ;
+1 x185 -1 x266 = 0 ;
-1 x55 +1 x5 >= 0 ;
-1 x55 +1 x10 >= 0 ;
+1 x55 -1 x5 -1 x10 >= -1 ;
-1 x47 +1 x4 >= 0 ;
-1 x47 +1 x11 >= 0 ;
+1 x47 -1 x4 -1 x11 >= -1 ;
-1 x39 +1 x3 >= 0 ;
-1 x39 +1 x12 >= 0 ;
+1 x39 -1 x3 -1 x12 >= -1 ;
-1 x31 +1 x2 >= 0 ;
-1 x31 +1 x13 >= 0 ;
+1 x31 -1 x2 -1 x13 >= -1 ;
-1 x23 +1 x1 >= 0 ;
-1 x23 +1 x14 >= 0 ;
+1 x23 -1 x1 -1 x14 >= -1 ;
-1 x64 +1 x6 >= 0 ;
-1 x64 +1 x10 >= 0 ;
+1 x64 -1 x6 -1 x10 >= -1 ;
-1 x56 +1 x5 >= 0 ;
-1 x56 +1 x11 >= 0 ;
+1 x56 -1 x5 -1 x11 >= -1 ;
-1 x48 +1 x4 >= 0 ;
-1 x48 +1 x12 >= 0 ;
+1 x48 -1 x4 -1 x12 >= -1 ;
-1 x40 +1 x3 >= 0 ;
-1 x40 +1 x13 >= 0 ;
+1 x40 -1 x3 -1 x13 >= -1 ;
-1 x32 +1 x2 >= 0 ;
-1 x32 +1 x14 >= 0 ;
+1 x32 -1 x2 -1 x14 >= -1 ;
-1 x24 +1 x1 >= 0 ;
-1 x24 +1 x15 >= 0 ;
+1 x24 -1 x1 -1 x15 >= -1 ;
+1 x226 -1 x64 = 0 ;
+2 x137 +1 x218 -1 x56 -1 x128 -1 x226 = 0 ;
+2 x129 +1 x210 -1 x48 -1 x120 -1 x218 = 0 ;
+2 x121 +1 x202 -1 x40 -1 x112 -1 x210 = 0 ;
+2 x113 +1 x194 -1 x32 -1 x104 -1 x202 = 0 ;
+2 x105 +1 x186 -1 x24 -1 x194 = 0 ;
+1 x186 -1 x267 = 0 ;
-1 x64 +1 x6 >= 0 ;
-1 x64 +1 x10 >= 0 ;
+1 x64 -1 x6 -1 x10 >= -1 ;
-1 x56 +1 x5 >= 0 ;
-1 x56 +1 x11 >= 0 ;
+1 x56 -1 x5 -1 x11 >= -1 ;
-1 x48 +1 x4 >= 0 ;
-1 x48 +1 x12 >= 0 ;
+1 x48 -1 x4 -1 x12 >= -1 ;
-1 x40 +1 x3 >= 0 ;
-1 x40 +1 x13 >= 0 ;
+1 x40 -1 x3 -1 x13 >= -1 ;
-1 x32 +1 x2 >= 0 ;
-1 x32 +1 x14 >= 0 ;
+1 x32 -1 x2 -1 x14 >= -1 ;
-1 x24 +1 x1 >= 0 ;
-1 x24 +1 x15 >= 0 ;
+1 x24 -1 x1 -1 x15 >= -1 ;
-1 x73 +1 x7 >= 0 ;
-1 x73 +1 x10 >= 0 ;
+1 x73 -1 x7 -1 x10 >= -1 ;
-1 x65 +1 x6 >= 0 ;
-1 x65 +1 x11 >= 0 ;
+1 x65 -1 x6 -1 x11 >= -1 ;
-1 x57 +1 x5 >= 0 ;
-1 x57 +1 x12 >= 0 ;
+1 x57 -1 x5 -1 x12 >= -1 ;
-1 x49 +1 x4 >= 0 ;
-1 x49 +1 x13 >= 0 ;
+1 x49 -1 x4 -1 x13 >= -1 ;
-1 x41 +1 x3 >= 0 ;
-1 x41 +1 x14 >= 0 ;
+1 x41 -1 x3 -1 x14 >= -1 ;
-1 x33 +1 x2 >= 0 ;
-1 x33 +1 x15 >= 0 ;
+1 x33 -1 x2 -1 x15 >= -1 ;
-1 x25 +1 x1 >= 0 ;
-1 x25 +1 x16 >= 0 ;
+1 x25 -1 x1 -1 x16 >= -1 ;
+1 x235 -1 x73 = 0 ;
+2 x146 +1 x227 -1 x65 -1 x137 -1 x235 = 0 ;
+2 x138 +1 x219 -1 x57 -1 x129 -1 x227 = 0 ;
+2 x130 +1 x211 -1 x49 -1 x121 -1 x219 = 0 ;
+2 x122 +1 x203 -1 x41 -1 x113 -1 x211 = 0 ;
+2 x114 +1 x195 -1 x33 -1 x105 -1 x203 = 0 ;
+2 x106 +1 x187 -1 x25 -1 x195 = 0 ;
+1 x187 -1 x268 = 0 ;
-1 x73 +1 x7 >= 0 ;
-1 x73 +1 x10 >= 0 ;
+1 x73 -1 x7 -1 x10 >= -1 ;
-1 x65 +1 x6 >= 0 ;
-1 x65 +1 x11 >= 0 ;
+1 x65 -1 x6 -1 x11 >= -1 ;
-1 x57 +1 x5 >= 0 ;
-1 x57 +1 x12 >= 0 ;
+1 x57 -1 x5 -1 x12 >= -1 ;
-1 x49 +1 x4 >= 0 ;
-1 x49 +1 x13 >= 0 ;
+1 x49 -1 x4 -1 x13 >= -1 ;
-1 x41 +1 x3 >= 0 ;
-1 x41 +1 x14 >= 0 ;
+1 x41 -1 x3 -1 x14 >= -1 ;
-1 x33 +1 x2 >= 0 ;
-1 x33 +1 x15 >= 0 ;
+1 x33 -1 x2 -1 x15 >= -1 ;
-1 x25 +1 x1 >= 0 ;
-1 x25 +1 x16 >= 0 ;
+1 x25 -1 x1 -1 x16 >= -1 ;
-1 x82 +1 x8 >= 0 ;
-1 x82 +1 x10 >= 0 ;
+1 x82 -1 x8 -1 x10 >= -1 ;
-1 x74 +1 x7 >= 0 ;
-1 x74 +1 x11 >= 0 ;
+1 x74 -1 x7 -1 x11 >= -1 ;
-1 x66 +1 x6 >= 0 ;
-1 x66 +1 x12 >= 0 ;
+1 x66 -1 x6 -1 x12 >= -1 ;
-1 x58 +1 x5 >= 0 ;
-1 x58 +1 x13 >= 0 ;
+1 x58 -1 x5 -1 x13 >= -1 ;
-1 x50 +1 x4 >= 0 ;
-1 x50 +1 x14 >= 0 ;
+1 x50 -1 x4 -1 x14 >= -1 ;
-1 x42 +1 x3 >= 0 ;
-1 x42 +1 x15 >= 0 ;
+1 x42 -1 x3 -1 x15 >= -1 ;
-1 x34 +1 x2 >= 0 ;
-1 x34 +1 x16 >= 0 ;
+1 x34 -1 x2 -1 x16 >= -1 ;
-1 x26 +1 x1 >= 0 ;
-1 x26 +1 x17 >= 0 ;
+1 x26 -1 x1 -1 x17 >= -1 ;
+1 x244 -1 x82 = 0 ;
+2 x155 +1 x236 -1 x74 -1 x146 -1 x244 = 0 ;
+2 x147 +1 x228 -1 x66 -1 x138 -1 x236 = 0 ;
+2 x139 +1 x220 -1 x58 -1 x130 -1 x228 = 0 ;
+2 x131 +1 x212 -1 x50 -1 x122 -1 x220 = 0 ;
+2 x123 +1 x204 -1 x42 -1 x114 -1 x212 = 0 ;
+2 x115 +1 x196 -1 x34 -1 x106 -1 x204 = 0 ;
+2 x107 +1 x188 -1 x26 -1 x196 = 0 ;
+1 x188 -1 x269 = 0 ;
-1 x82 +1 x8 >= 0 ;
-1 x82 +1 x10 >= 0 ;
+1 x82 -1 x8 -1 x10 >= -1 ;
-1 x74 +1 x7 >= 0 ;
-1 x74 +1 x11 >= 0 ;
+1 x74 -1 x7 -1 x11 >= -1 ;
-1 x66 +1 x6 >= 0 ;
-1 x66 +1 x12 >= 0 ;
+1 x66 -1 x6 -1 x12 >= -1 ;
-1 x58 +1 x5 >= 0 ;
-1 x58 +1 x13 >= 0 ;
+1 x58 -1 x5 -1 x13 >= -1 ;
-1 x50 +1 x4 >= 0 ;
-1 x50 +1 x14 >= 0 ;
+1 x50 -1 x4 -1 x14 >= -1 ;
-1 x42 +1 x3 >= 0 ;
-1 x42 +1 x15 >= 0 ;
+1 x42 -1 x3 -1 x15 >= -1 ;
-1 x34 +1 x2 >= 0 ;
-1 x34 +1 x16 >= 0 ;
+1 x34 -1 x2 -1 x16 >= -1 ;
-1 x26 +1 x1 >= 0 ;
-1 x26 +1 x17 >= 0 ;
+1 x26 -1 x1 -1 x17 >= -1 ;
-1 x91 +1 x9 >= 0 ;
-1 x91 +1 x10 >= 0 ;
+1 x91 -1 x9 -1 x10 >= -1 ;
-1 x83 +1 x8 >= 0 ;
-1 x83 +1 x11 >= 0 ;
+1 x83 -1 x8 -1 x11 >= -1 ;
-1 x75 +1 x7 >= 0 ;
-1 x75 +1 x12 >= 0 ;
+1 x75 -1 x7 -1 x12 >= -1 ;
-1 x67 +1 x6 >= 0 ;
-1 x67 +1 x13 >= 0 ;
+1 x67 -1 x6 -1 x13 >= -1 ;
-1 x59 +1 x5 >= 0 ;
-1 x59 +1 x14 >= 0 ;
+1 x59 -1 x5 -1 x14 >= -1 ;
-1 x51 +1 x4 >= 0 ;
-1 x51 +1 x15 >= 0 ;
+1 x51 -1 x4 -1 x15 >= -1 ;
-1 x43 +1 x3 >= 0 ;
-1 x43 +1 x16 >= 0 ;
+1 x43 -1 x3 -1 x16 >= -1 ;
-1 x35 +1 x2 >= 0 ;
-1 x35 +1 x17 >= 0 ;
+1 x35 -1 x2 -1 x17 >= -1 ;
-1 x27 +1 x1 >= 0 ;
-1 x27 +1 x18 >= 0 ;
+1 x27 -1 x1 -1 x18 >= -1 ;
+1 x253 -1 x91 = 0 ;
+2 x164 +1 x245 -1 x83 -1 x155 -1 x253 = 0 ;
+2 x156 +1 x237 -1 x75 -1 x147 -1 x245 = 0 ;
+2 x148 +1 x229 -1 x67 -1 x139 -1 x237 = 0 ;
+2 x140 +1 x221 -1 x59 -1 x131 -1 x229 = 0 ;
+2 x132 +1 x213 -1 x51 -1 x123 -1 x221 = 0 ;
+2 x124 +1 x205 -1 x43 -1 x115 -1 x213 = 0 ;
+2 x116 +1 x197 -1 x35 -1 x107 -1 x205 = 0 ;
+2 x108 +1 x189 -1 x27 -1 x197 = 0 ;
+1 x189 -1 x270 = 0 ;
-1 x91 +1 x9 >= 0 ;
-1 x91 +1 x10 >= 0 ;
+1 x91 -1 x9 -1 x10 >= -1 ;
-1 x83 +1 x8 >= 0 ;
-1 x83 +1 x11 >= 0 ;
+1 x83 -1 x8 -1 x11 >= -1 ;
-1 x75 +1 x7 >= 0 ;
-1 x75 +1 x12 >= 0 ;
+1 x75 -1 x7 -1 x12 >= -1 ;
-1 x67 +1 x6 >= 0 ;
-1 x67 +1 x13 >= 0 ;
+1 x67 -1 x6 -1 x13 >= -1 ;
-1 x59 +1 x5 >= 0 ;
-1 x59 +1 x14 >= 0 ;
+1 x59 -1 x5 -1 x14 >= -1 ;
-1 x51 +1 x4 >= 0 ;
-1 x51 +1 x15 >= 0 ;
+1 x51 -1 x4 -1 x15 >= -1 ;
-1 x43 +1 x3 >= 0 ;
-1 x43 +1 x16 >= 0 ;
+1 x43 -1 x3 -1 x16 >= -1 ;
-1 x35 +1 x2 >= 0 ;
-1 x35 +1 x17 >= 0 ;
+1 x35 -1 x2 -1 x17 >= -1 ;
-1 x27 +1 x1 >= 0 ;
-1 x27 +1 x18 >= 0 ;
+1 x27 -1 x1 -1 x18 >= -1 ;
-1 x92 +1 x9 >= 0 ;
-1 x92 +1 x11 >= 0 ;
+1 x92 -1 x9 -1 x11 >= -1 ;
-1 x84 +1 x8 >= 0 ;
-1 x84 +1 x12 >= 0 ;
+1 x84 -1 x8 -1 x12 >= -1 ;
-1 x76 +1 x7 >= 0 ;
-1 x76 +1 x13 >= 0 ;
+1 x76 -1 x7 -1 x13 >= -1 ;
-1 x68 +1 x6 >= 0 ;
-1 x68 +1 x14 >= 0 ;
+1 x68 -1 x6 -1 x14 >= -1 ;
-1 x60 +1 x5 >= 0 ;
-1 x60 +1 x15 >= 0 ;
+1 x60 -1 x5 -1 x15 >= -1 ;
-1 x52 +1 x4 >= 0 ;
-1 x52 +1 x16 >= 0 ;
+1 x52 -1 x4 -1 x16 >= -1 ;
-1 x44 +1 x3 >= 0 ;
-1 x44 +1 x17 >= 0 ;
+1 x44 -1 x3 -1 x17 >= -1 ;
-1 x36 +1 x2 >= 0 ;
-1 x36 +1 x18 >= 0 ;
+1 x36 -1 x2 -1 x18 >= -1 ;
+2 x173 +1 x254 -1 x92 -1 x164 = 0 ;
+2 x165 +1 x246 -1 x84 -1 x156 -1 x254 = 0 ;
+2 x157 +1 x238 -1 x76 -1 x148 -1 x246 = 0 ;
+2 x149 +1 x230 -1 x68 -1 x140 -1 x238 = 0 ;
+2 x141 +1 x222 -1 x60 -1 x132 -1 x230 = 0 ;
+2 x133 +1 x214 -1 x52 -1 x124 -1 x222 = 0 ;
+2 x125 +1 x206 -1 x44 -1 x116 -1 x214 = 0 ;
+2 x117 +1 x198 -1 x36 -1 x108 -1 x206 = 0 ;
+1 x198 -1 x271 = 0 ;
-1 x92 +1 x9 >= 0 ;
-1 x92 +1 x11 >= 0 ;
+1 x92 -1 x9 -1 x11 >= -1 ;
-1 x84 +1 x8 >= 0 ;
-1 x84 +1 x12 >= 0 ;
+1 x84 -1 x8 -1 x12 >= -1 ;
-1 x76 +1 x7 >= 0 ;
-1 x76 +1 x13 >= 0 ;
+1 x76 -1 x7 -1 x13 >= -1 ;
-1 x68 +1 x6 >= 0 ;
-1 x68 +1 x14 >= 0 ;
+1 x68 -1 x6 -1 x14 >= -1 ;
-1 x60 +1 x5 >= 0 ;
-1 x60 +1 x15 >= 0 ;
+1 x60 -1 x5 -1 x15 >= -1 ;
-1 x52 +1 x4 >= 0 ;
-1 x52 +1 x16 >= 0 ;
+1 x52 -1 x4 -1 x16 >= -1 ;
-1 x44 +1 x3 >= 0 ;
-1 x44 +1 x17 >= 0 ;
+1 x44 -1 x3 -1 x17 >= -1 ;
-1 x36 +1 x2 >= 0 ;
-1 x36 +1 x18 >= 0 ;
+1 x36 -1 x2 -1 x18 >= -1 ;
-1 x93 +1 x9 >= 0 ;
-1 x93 +1 x12 >= 0 ;
+1 x93 -1 x9 -1 x12 >= -1 ;
-1 x85 +1 x8 >= 0 ;
-1 x85 +1 x13 >= 0 ;
+1 x85 -1 x8 -1 x13 >= -1 ;
-1 x77 +1 x7 >= 0 ;
-1 x77 +1 x14 >= 0 ;
+1 x77 -1 x7 -1 x14 >= -1 ;
-1 x69 +1 x6 >= 0 ;
-1 x69 +1 x15 >= 0 ;
+1 x69 -1 x6 -1 x15 >= -1 ;
-1 x61 +1 x5 >= 0 ;
-1 x61 +1 x16 >= 0 ;
+1 x61 -1 x5 -1 x16 >= -1 ;
-1 x53 +1 x4 >= 0 ;
-1 x53 +1 x17 >= 0 ;
+1 x53 -1 x4 -1 x17 >= -1 ;
-1 x45 +1 x3 >= 0 ;
-1 x45 +1 x18 >= 0 ;
+1 x45 -1 x3 -1 x18 >= -1 ;
+2 x174 +1 x255 -1 x93 -1 x165 -1 x173 = 0 ;
+2 x166 +1 x247 -1 x85 -1 x157 -1 x255 = 0 ;
+2 x158 +1 x239 -1 x77 -1 x149 -1 x247 = 0 ;
+2 x150 +1 x231 -1 x69 -1 x141 -1 x239 = 0 ;
+2 x142 +1 x223 -1 x61 -1 x133 -1 x231 = 0 ;
+2 x134 +1 x215 -1 x53 -1 x125 -1 x223 = 0 ;
+2 x126 +1 x207 -1 x45 -1 x117 -1 x215 = 0 ;
+1 x207 -1 x272 = 0 ;
-1 x93 +1 x9 >= 0 ;
-1 x93 +1 x12 >= 0 ;
+1 x93 -1 x9 -1 x12 >= -1 ;
-1 x85 +1 x8 >= 0 ;
-1 x85 +1 x13 >= 0 ;
+1 x85 -1 x8 -1 x13 >= -1 ;
-1 x77 +1 x7 >= 0 ;
-1 x77 +1 x14 >= 0 ;
+1 x77 -1 x7 -1 x14 >= -1 ;
-1 x69 +1 x6 >= 0 ;
-1 x69 +1 x15 >= 0 ;
+1 x69 -1 x6 -1 x15 >= -1 ;
-1 x61 +1 x5 >= 0 ;
-1 x61 +1 x16 >= 0 ;
+1 x61 -1 x5 -1 x16 >= -1 ;
-1 x53 +1 x4 >= 0 ;
-1 x53 +1 x17 >= 0 ;
+1 x53 -1 x4 -1 x17 >= -1 ;
-1 x45 +1 x3 >= 0 ;
-1 x45 +1 x18 >= 0 ;
+1 x45 -1 x3 -1 x18 >= -1 ;
-1 x94 +1 x9 >= 0 ;
-1 x94 +1 x13 >= 0 ;
+1 x94 -1 x9 -1 x13 >= -1 ;
-1 x86 +1 x8 >= 0 ;
-1 x86 +1 x14 >= 0 ;
+1 x86 -1 x8 -1 x14 >= -1 ;
-1 x78 +1 x7 >= 0 ;
-1 x78 +1 x15 >= 0 ;
+1 x78 -1 x7 -1 x15 >= -1 ;
-1 x70 +1 x6 >= 0 ;
-1 x70 +1 x16 >= 0 ;
+1 x70 -1 x6 -1 x16 >= -1 ;
-1 x62 +1 x5 >= 0 ;
-1 x62 +1 x17 >= 0 ;
+1 x62 -1 x5 -1 x17 >= -1 ;
-1 x54 +1 x4 >= 0 ;
-1 x54 +1 x18 >= 0 ;
+1 x54 -1 x4 -1 x18 >= -1 ;
+2 x175 +1 x256 -1 x94 -1 x166 -1 x174 = 0 ;
+2 x167 +1 x248 -1 x86 -1 x158 -1 x256 = 0 ;
+2 x159 +1 x240 -1 x78 -1 x150 -1 x248 = 0 ;
+2 x151 +1 x232 -1 x70 -1 x142 -1 x240 = 0 ;
+2 x143 +1 x224 -1 x62 -1 x134 -1 x232 = 0 ;
+2 x135 +1 x216 -1 x54 -1 x126 -1 x224 = 0 ;
+1 x216 -1 x273 = 0 ;
-1 x94 +1 x9 >= 0 ;
-1 x94 +1 x13 >= 0 ;
+1 x94 -1 x9 -1 x13 >= -1 ;
-1 x86 +1 x8 >= 0 ;
-1 x86 +1 x14 >= 0 ;
+1 x86 -1 x8 -1 x14 >= -1 ;
-1 x78 +1 x7 >= 0 ;
-1 x78 +1 x15 >= 0 ;
+1 x78 -1 x7 -1 x15 >= -1 ;
-1 x70 +1 x6 >= 0 ;
-1 x70 +1 x16 >= 0 ;
+1 x70 -1 x6 -1 x16 >= -1 ;
-1 x62 +1 x5 >= 0 ;
-1 x62 +1 x17 >= 0 ;
+1 x62 -1 x5 -1 x17 >= -1 ;
-1 x54 +1 x4 >= 0 ;
-1 x54 +1 x18 >= 0 ;
+1 x54 -1 x4 -1 x18 >= -1 ;
-1 x95 +1 x9 >= 0 ;
-1 x95 +1 x14 >= 0 ;
+1 x95 -1 x9 -1 x14 >= -1 ;
-1 x87 +1 x8 >= 0 ;
-1 x87 +1 x15 >= 0 ;
+1 x87 -1 x8 -1 x15 >= -1 ;
-1 x79 +1 x7 >= 0 ;
-1 x79 +1 x16 >= 0 ;
+1 x79 -1 x7 -1 x16 >= -1 ;
-1 x71 +1 x6 >= 0 ;
-1 x71 +1 x17 >= 0 ;
+1 x71 -1 x6 -1 x17 >= -1 ;
-1 x63 +1 x5 >= 0 ;
-1 x63 +1 x18 >= 0 ;
+1 x63 -1 x5 -1 x18 >= -1 ;
+2 x176 +1 x257 -1 x95 -1 x167 -1 x175 = 0 ;
+2 x168 +1 x249 -1 x87 -1 x159 -1 x257 = 0 ;
+2 x160 +1 x241 -1 x79 -1 x151 -1 x249 = 0 ;
+2 x152 +1 x233 -1 x71 -1 x143 -1 x241 = 0 ;
+2 x144 +1 x225 -1 x63 -1 x135 -1 x233 = 0 ;
+1 x225 -1 x274 = 0 ;
-1 x95 +1 x9 >= 0 ;
-1 x95 +1 x14 >= 0 ;
+1 x95 -1 x9 -1 x14 >= -1 ;
-1 x87 +1 x8 >= 0 ;
-1 x87 +1 x15 >= 0 ;
+1 x87 -1 x8 -1 x15 >= -1 ;
-1 x79 +1 x7 >= 0 ;
-1 x79 +1 x16 >= 0 ;
+1 x79 -1 x7 -1 x16 >= -1 ;
-1 x71 +1 x6 >= 0 ;
-1 x71 +1 x17 >= 0 ;
+1 x71 -1 x6 -1 x17 >= -1 ;
-1 x63 +1 x5 >= 0 ;
-1 x63 +1 x18 >= 0 ;
+1 x63 -1 x5 -1 x18 >= -1 ;
-1 x96 +1 x9 >= 0 ;
-1 x96 +1 x15 >= 0 ;
+1 x96 -1 x9 -1 x15 >= -1 ;
-1 x88 +1 x8 >= 0 ;
-1 x88 +1 x16 >= 0 ;
+1 x88 -1 x8 -1 x16 >= -1 ;
-1 x80 +1 x7 >= 0 ;
-1 x80 +1 x17 >= 0 ;
+1 x80 -1 x7 -1 x17 >= -1 ;
-1 x72 +1 x6 >= 0 ;
-1 x72 +1 x18 >= 0 ;
+1 x72 -1 x6 -1 x18 >= -1 ;
+2 x177 +1 x258 -1 x96 -1 x168 -1 x176 = 0 ;
+2 x169 +1 x250 -1 x88 -1 x160 -1 x258 = 0 ;
+2 x161 +1 x242 -1 x80 -1 x152 -1 x250 = 0 ;
+2 x153 +1 x234 -1 x72 -1 x144 -1 x242 = 0 ;
+1 x234 -1 x275 = 0 ;
-1 x96 +1 x9 >= 0 ;
-1 x96 +1 x15 >= 0 ;
+1 x96 -1 x9 -1 x15 >= -1 ;
-1 x88 +1 x8 >= 0 ;
-1 x88 +1 x16 >= 0 ;
+1 x88 -1 x8 -1 x16 >= -1 ;
-1 x80 +1 x7 >= 0 ;
-1 x80 +1 x17 >= 0 ;
+1 x80 -1 x7 -1 x17 >= -1 ;
-1 x72 +1 x6 >= 0 ;
-1 x72 +1 x18 >= 0 ;
+1 x72 -1 x6 -1 x18 >= -1 ;
-1 x97 +1 x9 >= 0 ;
-1 x97 +1 x16 >= 0 ;
+1 x97 -1 x9 -1 x16 >= -1 ;
-1 x89 +1 x8 >= 0 ;
-1 x89 +1 x17 >= 0 ;
+1 x89 -1 x8 -1 x17 >= -1 ;
-1 x81 +1 x7 >= 0 ;
-1 x81 +1 x18 >= 0 ;
+1 x81 -1 x7 -1 x18 >= -1 ;
+2 x178 +1 x259 -1 x97 -1 x169 -1 x177 = 0 ;
+2 x170 +1 x251 -1 x89 -1 x161 -1 x259 = 0 ;
+2 x162 +1 x243 -1 x81 -1 x153 -1 x251 = 0 ;
+1 x243 -1 x276 = 0 ;
-1 x97 +1 x9 >= 0 ;
-1 x97 +1 x16 >= 0 ;
+1 x97 -1 x9 -1 x16 >= -1 ;
-1 x89 +1 x8 >= 0 ;
-1 x89 +1 x17 >= 0 ;
+1 x89 -1 x8 -1 x17 >= -1 ;
-1 x81 +1 x7 >= 0 ;
-1 x81 +1 x18 >= 0 ;
+1 x81 -1 x7 -1 x18 >= -1 ;
-1 x98 +1 x9 >= 0 ;
-1 x98 +1 x17 >= 0 ;
+1 x98 -1 x9 -1 x17 >= -1 ;
-1 x90 +1 x8 >= 0 ;
-1 x90 +1 x18 >= 0 ;
+1 x90 -1 x8 -1 x18 >= -1 ;
+2 x179 +1 x260 -1 x98 -1 x170 -1 x178 = 0 ;
+2 x171 +1 x252 -1 x90 -1 x162 -1 x260 = 0 ;
+1 x252 -1 x277 = 0 ;
-1 x98 +1 x9 >= 0 ;
-1 x98 +1 x17 >= 0 ;
+1 x98 -1 x9 -1 x17 >= -1 ;
-1 x90 +1 x8 >= 0 ;
-1 x90 +1 x18 >= 0 ;
+1 x90 -1 x8 -1 x18 >= -1 ;
-1 x99 +1 x9 >= 0 ;
-1 x99 +1 x18 >= 0 ;
+1 x99 -1 x9 -1 x18 >= -1 ;
+2 x180 +1 x261 -1 x99 -1 x171 -1 x179 = 0 ;
+1 x261 -1 x278 = 0 ;
-1 x99 +1 x9 >= 0 ;
-1 x99 +1 x18 >= 0 ;
+1 x99 -1 x9 -1 x18 >= -1 ;
+1 x180 -1 x279 = 0 ;
